problem_generation/data/GISP/train/er_n=64_m=1268_p=0.60_SET2_setparam=100.00_alpha=0.50_467.lp
maximize
OBJ:100x0 + 100x1 + 100x2 + 100x3 + 100x4 + 100x5 + 100x6 + 100x7 + 100x8 + 100x9 + 100x10 + 100x11 + 100x12 + 100x13 + 100x14 + 100x15 + 100x16 + 100x17 + 100x18 + 100x19 + 100x20 + 100x21 + 100x22 + 100x23 + 100x24 + 100x25 + 100x26 + 100x27 + 100x28 + 100x29 + 100x30 + 100x31 + 100x32 + 100x33 + 100x34 + 100x35 + 100x36 + 100x37 + 100x38 + 100x39 + 100x40 + 100x41 + 100x42 + 100x43 + 100x44 + 100x45 + 100x46 + 100x47 + 100x48 + 100x49 + 100x50 + 100x51 + 100x52 + 100x53 + 100x54 + 100x55 + 100x56 + 100x57 + 100x58 + 100x59 + 100x60 + 100x61 + 100x62 + 100x63 - y15_21 - y36_53 - y47_53 - y7_26 - y18_26 - y7_35 - y18_35 - y0_5 - y40_41 - y0_14 - y29_50 - y0_23 - y29_59 - y40_59 - y10_36 - y33_38 - y33_47 - y44_47 - y3_15 - y22_28 - y25_61 - y14_24 - y43_60 - y22_37 - y3_33 - y3_42 - y7_12 - y47_48 - y15_25 - y55_61 - y7_30 - y18_30 - y9_58 - y48_49 - y21_32 - y29_45 - y40_63 - y25_29 - y10_40 - y25_38 - y10_49 - y44_51 - y2_45 - y3_10 - y10_58 - y22_23 - y2_54 - y3_19 - y14_19 - y13_60 - y16_56 - y36_52 - y5_46 - y28_48 - y59_63 - y29_40 - y6_47 - y40_58 - y21_54 - y2_13 - y10_26 - y39_62 - y25_33 - y10_44 - y2_40 - y3_5 - y51_54 - y43_50 - y35_46 - y1_53 - y13_55 - y16_51 - y5_50 - y17_52 - y5_59 - y21_22 - y6_33 - y29_35 - y6_51 - y39_48 - y39_57 - y2_17 - y10_30 - y2_26 - y20_62 - y31_62 - y32_36 - y13_41 - y35_41 - y3_18 - y14_18 - y24_50 - y35_50 - y43_63 - y17_20 - y28_38 - y36_51 - y47_51 - y17_47 - y6_10 - y9_43 - y17_56 - y29_30 - y27_60 - y50_62 - y6_37 - y61_62 - y21_35 - y6_46 - y20_48 - y2_21 - y12_53 - y23_53 - y4_49 - y23_62 - y13_27 - y4_58 - y32_40 - y13_45 - y16_41 - y13_54 - y13_63 - y5_22 - y57_60 - y17_42 - y28_42 - y9_38 - y58_61 - y6_32 - y21_30 - y19_60 - y30_60 - y31_34 - y39_47 - y12_39 - y23_39 - y12_48 - y20_61 - y13_22 - y16_18 - y1_29 - y13_40 - y1_47 - y16_45 - y46_55 - y49_51 - y9_33 - y7_63 - y27_41 - y50_52 - y19_46 - y30_46 - y27_59 - y42_48 - y50_61 - y11_51 - y0_60 - y31_38 - y39_51 - y12_34 - y2_11 - y39_60 - y31_56 - y4_39 - y4_48 - y12_61 - y23_61 - y24_26 - y32_39 - y16_22 - y34_58 - y13_35 - y53_62 - y1_42 - y13_44 - y37_63 - y9_10 - y15_53 - y26_53 - y38_55 - y26_62 - y7_58 - y27_36 - y6_13 - y19_50 - y30_50 - y42_52 - y0_46 - y8_59 - y30_59 - y0_55 - y39_46 - y23_38 - y23_56 - y1_19 - y4_52 - y34_53 - y45_53 - y1_28 - y24_30 - y4_61 - y56_62 - y15_48 - y38_50 - y46_63 - y57_63 - y15_57 - y18_53 - y8_27 - y8_36 - y19_36 - y27_49 - y30_45 - y8_54 - y8_63 - y20_28 - y11_59 - y39_41 - y41_60 - y52_60 - y4_20 - y16_21 - y45_57 - y56_57 - y16_30 - y14_60 - y26_43 - y38_45 - y46_58 - y18_39 - y57_58 - y49_54 - y7_48 - y18_48 - y38_63 - y7_57 - y18_57 - y19_22 - y8_31 - y19_40 - y27_53 - y0_36 - y19_49 - y0_45 - y20_23 - y41_55 - y23_28 - y22_41 - y53_56 - y37_39 - y22_50 - y14_46 - y34_61 - y45_61 - y56_61 - y3_55 - y26_38 - y38_40 - y15_47 - y7_43 - y15_56 - y8_17 - y0_13 - y19_26 - y48_62 - y29_58 - y19_44 - y11_40 - y11_49 - y12_14 - y60_63 - y4_10 - y44_46 - y12_23 - y41_59 - y52_59 - y10_53 - y25_51 - y10_62 - y1_4 - y2_58 - y22_36 - y34_38 - y22_45 - y45_47 - y3_41 - y37_43 - y34_56 - y45_56 - y14_59 - y7_20 - y18_20 - y15_33 - y7_38 - y26_51 - y18_47 - y8_21 - y0_17 - y40_53 - y8_30 - y19_30 - y6_60 - y11_26 - y40_62 - y11_35 - y33_41 - y10_48 - y33_50 - y10_57 - y22_31 - y3_27 - y14_36 - y37_38 - y22_49 - y34_51 - y3_45 - y14_45 - y7_15 - y14_63 - y47_60 - y59_62 - y26_37 - y18_42 - y0_3 - y29_39 - y8_16 - y29_48 - y6_55 - y11_21 - y21_53 - y11_30 - y10_43 - y52_58 - y44_54 - y10_61 - y51_62 - y14_40 - y36_46 - y47_55 - y28_51 - y18_28 - y18_37 - y8_11 - y29_43 - y40_43 - y21_39 - y0_16 - y11_16 - y10_20 - y2_25 - y25_27 - y10_38 - y33_40 - y2_52 - y3_17 - y25_54 - y2_61 - y3_26 - y24_58 - y3_35 - y16_63 - y15_18 - y47_50 - y55_63 - y9_42 - y5_62 - y21_25 - y0_2 - y29_38 - y40_47 - y6_54 - y29_56 - y21_52 - y6_63 - y10_24 - y10_42 - y25_40 - y2_47 - y3_12 - y22_25 - y2_56 - y32_57 - y24_53 - y35_53 - y14_30 - y13_62 - y24_62 - y16_58 - y28_32 - y7_9 - y36_54 - y9_37 - y47_63 - y58_60 - y9_55 - y29_33 - y21_29 - y40_42 - y39_55 - y10_28 - y20_60 - y31_60 - y25_35 - y32_43 - y51_56 - y24_39 - y3_16 - y35_48 - y14_25 - y16_44 - y13_57 - y24_57 - y16_53 - y16_62 - y9_23 - y5_34 - y28_36 - y36_49 - y9_32 - y28_45 - y47_58 - y6_17 - y9_50 - y28_63 - y9_59 - y29_37 - y10_14 - y39_50 - y10_23 - y31_55 - y12_51 - y32_47 - y1_41 - y13_43 - y24_43 - y35_43 - y43_56 - y1_50 - y13_52 - y1_59 - y35_61 - y17_22 - y28_31 - y5_47 - y6_39 - y8_58 - y0_63 - y2_5 - y20_41 - y10_18 - y31_41 - y12_46 - y23_46 - y12_55 - y23_55 - y4_51 - y1_27 - y4_60 - y1_36 - y24_38 - y43_51 - y13_47 - y16_43 - y1_54 - y1_63 - y36_39 - y38_58 - y49_58 - y17_35 - y5_42 - y6_16 - y21_23 - y27_57 - y30_53 - y0_49 - y8_62 - y20_27 - y30_62 - y31_36 - y23_32 - y20_45 - y31_45 - y39_58 - y20_54 - y31_54 - y13_15 - y20_63 - y4_46 - y31_63 - y12_59 - y4_55 - y32_37 - y1_31 - y24_42 - y1_49 - y24_51 - y35_51 - y16_47 - y5_10 - y46_48 - y17_21 - y17_30 - y9_26 - y9_35 - y6_11 - y6_20 - y27_52 - y50_54 - y19_48 - y50_63 - y42_59 - y0_53 - y20_31 - y12_27 - y23_27 - y4_23 - y12_36 - y23_45 - y4_41 - y23_54 - y1_17 - y4_50 - y13_28 - y16_24 - y1_35 - y13_37 - y35_37 - y16_42 - y5_23 - y57_61 - y26_55 - y38_57 - y7_51 - y7_60 - y19_34 - y30_34 - y8_43 - y19_43 - y42_45 - y30_52 - y19_61 - y11_57 - y20_44 - y12_40 - y23_40 - y34_46 - y45_55 - y1_39 - y5_9 - y46_47 - y5_18 - y26_50 - y7_46 - y18_55 - y19_29 - y27_42 - y0_25 - y19_38 - y27_51 - y19_47 - y0_43 - y11_52 - y41_53 - y20_30 - y0_61 - y41_62 - y12_35 - y4_31 - y23_44 - y4_40 - y13_18 - y22_48 - y45_50 - y16_23 - y14_62 - y15_27 - y5_13 - y46_51 - y26_45 - y18_41 - y26_54 - y7_50 - y0_11 - y18_59 - y30_33 - y19_42 - y0_38 - y30_51 - y0_47 - y4_8 - y12_21 - y33_53 - y44_53 - y4_35 - y22_34 - y22_43 - y34_45 - y34_54 - y14_48 - y22_61 - y34_63 - y45_63 - y56_63 - y7_18 - y15_31 - y7_27 - y18_27 - y18_36 - y7_45 - y48_55 - y27_32 - y0_15 - y11_24 - y29_60 - y19_37 - y33_39 - y41_52 - y4_12 - y52_61 - y25_44 - y2_60 - y22_38 - y34_40 - y3_34 - y14_34 - y45_49 - y14_43 - y37_45 - y22_56 - y3_52 - y14_52 - y14_61 - y15_26 - y7_22 - y59_60 - y26_44 - y7_40 - y18_40 - y0_1 - y18_49 - y8_14 - y0_10 - y19_23 - y11_28 - y33_43 - y52_56 - y25_39 - y4_16 - y44_52 - y25_48 - y10_59 - y33_61 - y14_20 - y34_35 - y3_29 - y14_38 - y37_40 - y7_8 - y14_56
 Subject to
C1: x0+x1-y0_1 <=1 
C2: x0+x2-y0_2 <=1 
C3: x0+x3-y0_3 <=1 
C4: x0+x5-y0_5 <=1 
C5: x0+x6 <=1 
C6: x0+x7 <=1 
C7: x0+x10-y0_10 <=1 
C8: x0+x11-y0_11 <=1 
C9: x0+x12 <=1 
C10: x0+x13-y0_13 <=1 
C11: x0+x14-y0_14 <=1 
C12: x0+x15-y0_15 <=1 
C13: x0+x16-y0_16 <=1 
C14: x0+x17-y0_17 <=1 
C15: x0+x19 <=1 
C16: x0+x20 <=1 
C17: x0+x21 <=1 
C18: x0+x23-y0_23 <=1 
C19: x0+x25-y0_25 <=1 
C20: x0+x27 <=1 
C21: x0+x28 <=1 
C22: x0+x29 <=1 
C23: x0+x33 <=1 
C24: x0+x36-y0_36 <=1 
C25: x0+x38-y0_38 <=1 
C26: x0+x40 <=1 
C27: x0+x42 <=1 
C28: x0+x43-y0_43 <=1 
C29: x0+x44 <=1 
C30: x0+x45-y0_45 <=1 
C31: x0+x46-y0_46 <=1 
C32: x0+x47-y0_47 <=1 
C33: x0+x49-y0_49 <=1 
C34: x0+x50 <=1 
C35: x0+x51 <=1 
C36: x0+x53-y0_53 <=1 
C37: x0+x54 <=1 
C38: x0+x55-y0_55 <=1 
C39: x0+x57 <=1 
C40: x0+x59 <=1 
C41: x0+x60-y0_60 <=1 
C42: x0+x61-y0_61 <=1 
C43: x0+x62 <=1 
C44: x0+x63-y0_63 <=1 
C45: x1+x2 <=1 
C46: x1+x3 <=1 
C47: x1+x4-y1_4 <=1 
C48: x1+x6 <=1 
C49: x1+x10 <=1 
C50: x1+x11 <=1 
C51: x1+x12 <=1 
C52: x1+x16 <=1 
C53: x1+x17-y1_17 <=1 
C54: x1+x18 <=1 
C55: x1+x19-y1_19 <=1 
C56: x1+x21 <=1 
C57: x1+x25 <=1 
C58: x1+x26 <=1 
C59: x1+x27-y1_27 <=1 
C60: x1+x28-y1_28 <=1 
C61: x1+x29-y1_29 <=1 
C62: x1+x31-y1_31 <=1 
C63: x1+x34 <=1 
C64: x1+x35-y1_35 <=1 
C65: x1+x36-y1_36 <=1 
C66: x1+x39-y1_39 <=1 
C67: x1+x40 <=1 
C68: x1+x41-y1_41 <=1 
C69: x1+x42-y1_42 <=1 
C70: x1+x43 <=1 
C71: x1+x46 <=1 
C72: x1+x47-y1_47 <=1 
C73: x1+x48 <=1 
C74: x1+x49-y1_49 <=1 
C75: x1+x50-y1_50 <=1 
C76: x1+x51 <=1 
C77: x1+x53-y1_53 <=1 
C78: x1+x54-y1_54 <=1 
C79: x1+x55 <=1 
C80: x1+x56 <=1 
C81: x1+x57 <=1 
C82: x1+x58 <=1 
C83: x1+x59-y1_59 <=1 
C84: x1+x61 <=1 
C85: x1+x62 <=1 
C86: x1+x63-y1_63 <=1 
C87: x2+x4 <=1 
C88: x2+x5-y2_5 <=1 
C89: x2+x11-y2_11 <=1 
C90: x2+x13-y2_13 <=1 
C91: x2+x15 <=1 
C92: x2+x17-y2_17 <=1 
C93: x2+x21-y2_21 <=1 
C94: x2+x22 <=1 
C95: x2+x25-y2_25 <=1 
C96: x2+x26-y2_26 <=1 
C97: x2+x27 <=1 
C98: x2+x28 <=1 
C99: x2+x30 <=1 
C100: x2+x31 <=1 
C101: x2+x32 <=1 
C102: x2+x33 <=1 
C103: x2+x35 <=1 
C104: x2+x36 <=1 
C105: x2+x37 <=1 
C106: x2+x39 <=1 
C107: x2+x40-y2_40 <=1 
C108: x2+x41 <=1 
C109: x2+x45-y2_45 <=1 
C110: x2+x47-y2_47 <=1 
C111: x2+x48 <=1 
C112: x2+x52-y2_52 <=1 
C113: x2+x54-y2_54 <=1 
C114: x2+x55 <=1 
C115: x2+x56-y2_56 <=1 
C116: x2+x57 <=1 
C117: x2+x58-y2_58 <=1 
C118: x2+x60-y2_60 <=1 
C119: x2+x61-y2_61 <=1 
C120: x2+x63 <=1 
C121: x3+x5-y3_5 <=1 
C122: x3+x6 <=1 
C123: x3+x9 <=1 
C124: x3+x10-y3_10 <=1 
C125: x3+x11 <=1 
C126: x3+x12-y3_12 <=1 
C127: x3+x14 <=1 
C128: x3+x15-y3_15 <=1 
C129: x3+x16-y3_16 <=1 
C130: x3+x17-y3_17 <=1 
C131: x3+x18-y3_18 <=1 
C132: x3+x19-y3_19 <=1 
C133: x3+x20 <=1 
C134: x3+x22 <=1 
C135: x3+x26-y3_26 <=1 
C136: x3+x27-y3_27 <=1 
C137: x3+x29-y3_29 <=1 
C138: x3+x30 <=1 
C139: x3+x33-y3_33 <=1 
C140: x3+x34-y3_34 <=1 
C141: x3+x35-y3_35 <=1 
C142: x3+x36 <=1 
C143: x3+x38 <=1 
C144: x3+x39 <=1 
C145: x3+x40 <=1 
C146: x3+x41-y3_41 <=1 
C147: x3+x42-y3_42 <=1 
C148: x3+x45-y3_45 <=1 
C149: x3+x47 <=1 
C150: x3+x51 <=1 
C151: x3+x52-y3_52 <=1 
C152: x3+x53 <=1 
C153: x3+x55-y3_55 <=1 
C154: x3+x61 <=1 
C155: x3+x62 <=1 
C156: x4+x8-y4_8 <=1 
C157: x4+x9 <=1 
C158: x4+x10-y4_10 <=1 
C159: x4+x12-y4_12 <=1 
C160: x4+x13 <=1 
C161: x4+x16-y4_16 <=1 
C162: x4+x18 <=1 
C163: x4+x19 <=1 
C164: x4+x20-y4_20 <=1 
C165: x4+x21 <=1 
C166: x4+x22 <=1 
C167: x4+x23-y4_23 <=1 
C168: x4+x25 <=1 
C169: x4+x28 <=1 
C170: x4+x31-y4_31 <=1 
C171: x4+x32 <=1 
C172: x4+x34 <=1 
C173: x4+x35-y4_35 <=1 
C174: x4+x36 <=1 
C175: x4+x38 <=1 
C176: x4+x39-y4_39 <=1 
C177: x4+x40-y4_40 <=1 
C178: x4+x41-y4_41 <=1 
C179: x4+x43 <=1 
C180: x4+x46-y4_46 <=1 
C181: x4+x47 <=1 
C182: x4+x48-y4_48 <=1 
C183: x4+x49-y4_49 <=1 
C184: x4+x50-y4_50 <=1 
C185: x4+x51-y4_51 <=1 
C186: x4+x52-y4_52 <=1 
C187: x4+x53 <=1 
C188: x4+x54 <=1 
C189: x4+x55-y4_55 <=1 
C190: x4+x57 <=1 
C191: x4+x58-y4_58 <=1 
C192: x4+x59 <=1 
C193: x4+x60-y4_60 <=1 
C194: x4+x61-y4_61 <=1 
C195: x4+x62 <=1 
C196: x4+x63 <=1 
C197: x5+x6 <=1 
C198: x5+x9-y5_9 <=1 
C199: x5+x10-y5_10 <=1 
C200: x5+x12 <=1 
C201: x5+x13-y5_13 <=1 
C202: x5+x15 <=1 
C203: x5+x16 <=1 
C204: x5+x17 <=1 
C205: x5+x18-y5_18 <=1 
C206: x5+x19 <=1 
C207: x5+x22-y5_22 <=1 
C208: x5+x23-y5_23 <=1 
C209: x5+x25 <=1 
C210: x5+x27 <=1 
C211: x5+x30 <=1 
C212: x5+x31 <=1 
C213: x5+x33 <=1 
C214: x5+x34-y5_34 <=1 
C215: x5+x35 <=1 
C216: x5+x38 <=1 
C217: x5+x40 <=1 
C218: x5+x41 <=1 
C219: x5+x42-y5_42 <=1 
C220: x5+x43 <=1 
C221: x5+x45 <=1 
C222: x5+x46-y5_46 <=1 
C223: x5+x47-y5_47 <=1 
C224: x5+x48 <=1 
C225: x5+x49 <=1 
C226: x5+x50-y5_50 <=1 
C227: x5+x53 <=1 
C228: x5+x54 <=1 
C229: x5+x55 <=1 
C230: x5+x56 <=1 
C231: x5+x57 <=1 
C232: x5+x58 <=1 
C233: x5+x59-y5_59 <=1 
C234: x5+x60 <=1 
C235: x5+x61 <=1 
C236: x5+x62-y5_62 <=1 
C237: x5+x63 <=1 
C238: x6+x10-y6_10 <=1 
C239: x6+x11-y6_11 <=1 
C240: x6+x12 <=1 
C241: x6+x13-y6_13 <=1 
C242: x6+x15 <=1 
C243: x6+x16-y6_16 <=1 
C244: x6+x17-y6_17 <=1 
C245: x6+x18 <=1 
C246: x6+x20-y6_20 <=1 
C247: x6+x21 <=1 
C248: x6+x22 <=1 
C249: x6+x24 <=1 
C250: x6+x25 <=1 
C251: x6+x27 <=1 
C252: x6+x30 <=1 
C253: x6+x31 <=1 
C254: x6+x32-y6_32 <=1 
C255: x6+x33-y6_33 <=1 
C256: x6+x34 <=1 
C257: x6+x37-y6_37 <=1 
C258: x6+x38 <=1 
C259: x6+x39-y6_39 <=1 
C260: x6+x41 <=1 
C261: x6+x45 <=1 
C262: x6+x46-y6_46 <=1 
C263: x6+x47-y6_47 <=1 
C264: x6+x49 <=1 
C265: x6+x51-y6_51 <=1 
C266: x6+x53 <=1 
C267: x6+x54-y6_54 <=1 
C268: x6+x55-y6_55 <=1 
C269: x6+x56 <=1 
C270: x6+x57 <=1 
C271: x6+x58 <=1 
C272: x6+x60-y6_60 <=1 
C273: x6+x63-y6_63 <=1 
C274: x7+x8-y7_8 <=1 
C275: x7+x9-y7_9 <=1 
C276: x7+x11 <=1 
C277: x7+x12-y7_12 <=1 
C278: x7+x15-y7_15 <=1 
C279: x7+x16 <=1 
C280: x7+x18-y7_18 <=1 
C281: x7+x19 <=1 
C282: x7+x20-y7_20 <=1 
C283: x7+x22-y7_22 <=1 
C284: x7+x23 <=1 
C285: x7+x25 <=1 
C286: x7+x26-y7_26 <=1 
C287: x7+x27-y7_27 <=1 
C288: x7+x28 <=1 
C289: x7+x29 <=1 
C290: x7+x30-y7_30 <=1 
C291: x7+x32 <=1 
C292: x7+x33 <=1 
C293: x7+x35-y7_35 <=1 
C294: x7+x37 <=1 
C295: x7+x38-y7_38 <=1 
C296: x7+x39 <=1 
C297: x7+x40-y7_40 <=1 
C298: x7+x43-y7_43 <=1 
C299: x7+x44 <=1 
C300: x7+x45-y7_45 <=1 
C301: x7+x46-y7_46 <=1 
C302: x7+x48-y7_48 <=1 
C303: x7+x50-y7_50 <=1 
C304: x7+x51-y7_51 <=1 
C305: x7+x52 <=1 
C306: x7+x53 <=1 
C307: x7+x56 <=1 
C308: x7+x57-y7_57 <=1 
C309: x7+x58-y7_58 <=1 
C310: x7+x59 <=1 
C311: x7+x60-y7_60 <=1 
C312: x7+x63-y7_63 <=1 
C313: x8+x10 <=1 
C314: x8+x11-y8_11 <=1 
C315: x8+x12 <=1 
C316: x8+x14-y8_14 <=1 
C317: x8+x15 <=1 
C318: x8+x16-y8_16 <=1 
C319: x8+x17-y8_17 <=1 
C320: x8+x19 <=1 
C321: x8+x21-y8_21 <=1 
C322: x8+x23 <=1 
C323: x8+x25 <=1 
C324: x8+x27-y8_27 <=1 
C325: x8+x29 <=1 
C326: x8+x30-y8_30 <=1 
C327: x8+x31-y8_31 <=1 
C328: x8+x32 <=1 
C329: x8+x35 <=1 
C330: x8+x36-y8_36 <=1 
C331: x8+x38 <=1 
C332: x8+x39 <=1 
C333: x8+x40 <=1 
C334: x8+x41 <=1 
C335: x8+x42 <=1 
C336: x8+x43-y8_43 <=1 
C337: x8+x44 <=1 
C338: x8+x46 <=1 
C339: x8+x48 <=1 
C340: x8+x49 <=1 
C341: x8+x54-y8_54 <=1 
C342: x8+x58-y8_58 <=1 
C343: x8+x59-y8_59 <=1 
C344: x8+x60 <=1 
C345: x8+x61 <=1 
C346: x8+x62-y8_62 <=1 
C347: x8+x63-y8_63 <=1 
C348: x9+x10-y9_10 <=1 
C349: x9+x15 <=1 
C350: x9+x17 <=1 
C351: x9+x18 <=1 
C352: x9+x21 <=1 
C353: x9+x23-y9_23 <=1 
C354: x9+x24 <=1 
C355: x9+x26-y9_26 <=1 
C356: x9+x30 <=1 
C357: x9+x31 <=1 
C358: x9+x32-y9_32 <=1 
C359: x9+x33-y9_33 <=1 
C360: x9+x34 <=1 
C361: x9+x35-y9_35 <=1 
C362: x9+x37-y9_37 <=1 
C363: x9+x38-y9_38 <=1 
C364: x9+x39 <=1 
C365: x9+x41 <=1 
C366: x9+x42-y9_42 <=1 
C367: x9+x43-y9_43 <=1 
C368: x9+x45 <=1 
C369: x9+x46 <=1 
C370: x9+x50-y9_50 <=1 
C371: x9+x51 <=1 
C372: x9+x52 <=1 
C373: x9+x55-y9_55 <=1 
C374: x9+x57 <=1 
C375: x9+x58-y9_58 <=1 
C376: x9+x59-y9_59 <=1 
C377: x9+x60 <=1 
C378: x9+x63 <=1 
C379: x10+x14-y10_14 <=1 
C380: x10+x18-y10_18 <=1 
C381: x10+x20-y10_20 <=1 
C382: x10+x23-y10_23 <=1 
C383: x10+x24-y10_24 <=1 
C384: x10+x25 <=1 
C385: x10+x26-y10_26 <=1 
C386: x10+x28-y10_28 <=1 
C387: x10+x30-y10_30 <=1 
C388: x10+x31 <=1 
C389: x10+x32 <=1 
C390: x10+x34 <=1 
C391: x10+x35 <=1 
C392: x10+x36-y10_36 <=1 
C393: x10+x37 <=1 
C394: x10+x38-y10_38 <=1 
C395: x10+x40-y10_40 <=1 
C396: x10+x41 <=1 
C397: x10+x42-y10_42 <=1 
C398: x10+x43-y10_43 <=1 
C399: x10+x44-y10_44 <=1 
C400: x10+x46 <=1 
C401: x10+x48-y10_48 <=1 
C402: x10+x49-y10_49 <=1 
C403: x10+x51 <=1 
C404: x10+x52 <=1 
C405: x10+x53-y10_53 <=1 
C406: x10+x56 <=1 
C407: x10+x57-y10_57 <=1 
C408: x10+x58-y10_58 <=1 
C409: x10+x59-y10_59 <=1 
C410: x10+x60 <=1 
C411: x10+x61-y10_61 <=1 
C412: x10+x62-y10_62 <=1 
C413: x10+x63 <=1 
C414: x11+x13 <=1 
C415: x11+x15 <=1 
C416: x11+x16-y11_16 <=1 
C417: x11+x19 <=1 
C418: x11+x20 <=1 
C419: x11+x21-y11_21 <=1 
C420: x11+x24-y11_24 <=1 
C421: x11+x26-y11_26 <=1 
C422: x11+x27 <=1 
C423: x11+x28-y11_28 <=1 
C424: x11+x29 <=1 
C425: x11+x30-y11_30 <=1 
C426: x11+x31 <=1 
C427: x11+x32 <=1 
C428: x11+x33 <=1 
C429: x11+x35-y11_35 <=1 
C430: x11+x40-y11_40 <=1 
C431: x11+x42 <=1 
C432: x11+x48 <=1 
C433: x11+x49-y11_49 <=1 
C434: x11+x50 <=1 
C435: x11+x51-y11_51 <=1 
C436: x11+x52-y11_52 <=1 
C437: x11+x55 <=1 
C438: x11+x57-y11_57 <=1 
C439: x11+x58 <=1 
C440: x11+x59-y11_59 <=1 
C441: x11+x62 <=1 
C442: x12+x13 <=1 
C443: x12+x14-y12_14 <=1 
C444: x12+x19 <=1 
C445: x12+x20 <=1 
C446: x12+x21-y12_21 <=1 
C447: x12+x22 <=1 
C448: x12+x23-y12_23 <=1 
C449: x12+x27-y12_27 <=1 
C450: x12+x29 <=1 
C451: x12+x33 <=1 
C452: x12+x34-y12_34 <=1 
C453: x12+x35-y12_35 <=1 
C454: x12+x36-y12_36 <=1 
C455: x12+x38 <=1 
C456: x12+x39-y12_39 <=1 
C457: x12+x40-y12_40 <=1 
C458: x12+x42 <=1 
C459: x12+x43 <=1 
C460: x12+x44 <=1 
C461: x12+x45 <=1 
C462: x12+x46-y12_46 <=1 
C463: x12+x48-y12_48 <=1 
C464: x12+x49 <=1 
C465: x12+x50 <=1 
C466: x12+x51-y12_51 <=1 
C467: x12+x53-y12_53 <=1 
C468: x12+x55-y12_55 <=1 
C469: x12+x59-y12_59 <=1 
C470: x12+x60 <=1 
C471: x12+x61-y12_61 <=1 
C472: x12+x63 <=1 
C473: x13+x14 <=1 
C474: x13+x15-y13_15 <=1 
C475: x13+x17 <=1 
C476: x13+x18-y13_18 <=1 
C477: x13+x20 <=1 
C478: x13+x21 <=1 
C479: x13+x22-y13_22 <=1 
C480: x13+x25 <=1 
C481: x13+x27-y13_27 <=1 
C482: x13+x28-y13_28 <=1 
C483: x13+x29 <=1 
C484: x13+x30 <=1 
C485: x13+x34 <=1 
C486: x13+x35-y13_35 <=1 
C487: x13+x36 <=1 
C488: x13+x37-y13_37 <=1 
C489: x13+x38 <=1 
C490: x13+x40-y13_40 <=1 
C491: x13+x41-y13_41 <=1 
C492: x13+x43-y13_43 <=1 
C493: x13+x44-y13_44 <=1 
C494: x13+x45-y13_45 <=1 
C495: x13+x47-y13_47 <=1 
C496: x13+x48 <=1 
C497: x13+x49 <=1 
C498: x13+x50 <=1 
C499: x13+x52-y13_52 <=1 
C500: x13+x53 <=1 
C501: x13+x54-y13_54 <=1 
C502: x13+x55-y13_55 <=1 
C503: x13+x57-y13_57 <=1 
C504: x13+x59 <=1 
C505: x13+x60-y13_60 <=1 
C506: x13+x62-y13_62 <=1 
C507: x13+x63-y13_63 <=1 
C508: x14+x16 <=1 
C509: x14+x17 <=1 
C510: x14+x18-y14_18 <=1 
C511: x14+x19-y14_19 <=1 
C512: x14+x20-y14_20 <=1 
C513: x14+x21 <=1 
C514: x14+x22 <=1 
C515: x14+x24-y14_24 <=1 
C516: x14+x25-y14_25 <=1 
C517: x14+x26 <=1 
C518: x14+x28 <=1 
C519: x14+x30-y14_30 <=1 
C520: x14+x34-y14_34 <=1 
C521: x14+x36-y14_36 <=1 
C522: x14+x37 <=1 
C523: x14+x38-y14_38 <=1 
C524: x14+x39 <=1 
C525: x14+x40-y14_40 <=1 
C526: x14+x41 <=1 
C527: x14+x42 <=1 
C528: x14+x43-y14_43 <=1 
C529: x14+x44 <=1 
C530: x14+x45-y14_45 <=1 
C531: x14+x46-y14_46 <=1 
C532: x14+x47 <=1 
C533: x14+x48-y14_48 <=1 
C534: x14+x50 <=1 
C535: x14+x52-y14_52 <=1 
C536: x14+x55 <=1 
C537: x14+x56-y14_56 <=1 
C538: x14+x59-y14_59 <=1 
C539: x14+x60-y14_60 <=1 
C540: x14+x61-y14_61 <=1 
C541: x14+x62-y14_62 <=1 
C542: x14+x63-y14_63 <=1 
C543: x15+x17 <=1 
C544: x15+x18-y15_18 <=1 
C545: x15+x21-y15_21 <=1 
C546: x15+x23 <=1 
C547: x15+x25-y15_25 <=1 
C548: x15+x26-y15_26 <=1 
C549: x15+x27-y15_27 <=1 
C550: x15+x29 <=1 
C551: x15+x31-y15_31 <=1 
C552: x15+x32 <=1 
C553: x15+x33-y15_33 <=1 
C554: x15+x34 <=1 
C555: x15+x35 <=1 
C556: x15+x38 <=1 
C557: x15+x42 <=1 
C558: x15+x43 <=1 
C559: x15+x44 <=1 
C560: x15+x45 <=1 
C561: x15+x47-y15_47 <=1 
C562: x15+x48-y15_48 <=1 
C563: x15+x49 <=1 
C564: x15+x50 <=1 
C565: x15+x51 <=1 
C566: x15+x53-y15_53 <=1 
C567: x15+x55 <=1 
C568: x15+x56-y15_56 <=1 
C569: x15+x57-y15_57 <=1 
C570: x15+x58 <=1 
C571: x15+x61 <=1 
C572: x16+x18-y16_18 <=1 
C573: x16+x19 <=1 
C574: x16+x21-y16_21 <=1 
C575: x16+x22-y16_22 <=1 
C576: x16+x23-y16_23 <=1 
C577: x16+x24-y16_24 <=1 
C578: x16+x27 <=1 
C579: x16+x28 <=1 
C580: x16+x30-y16_30 <=1 
C581: x16+x31 <=1 
C582: x16+x32 <=1 
C583: x16+x34 <=1 
C584: x16+x37 <=1 
C585: x16+x40 <=1 
C586: x16+x41-y16_41 <=1 
C587: x16+x42-y16_42 <=1 
C588: x16+x43-y16_43 <=1 
C589: x16+x44-y16_44 <=1 
C590: x16+x45-y16_45 <=1 
C591: x16+x46 <=1 
C592: x16+x47-y16_47 <=1 
C593: x16+x51-y16_51 <=1 
C594: x16+x53-y16_53 <=1 
C595: x16+x56-y16_56 <=1 
C596: x16+x58-y16_58 <=1 
C597: x16+x59 <=1 
C598: x16+x62-y16_62 <=1 
C599: x16+x63-y16_63 <=1 
C600: x17+x18 <=1 
C601: x17+x20-y17_20 <=1 
C602: x17+x21-y17_21 <=1 
C603: x17+x22-y17_22 <=1 
C604: x17+x23 <=1 
C605: x17+x24 <=1 
C606: x17+x26 <=1 
C607: x17+x28 <=1 
C608: x17+x30-y17_30 <=1 
C609: x17+x31 <=1 
C610: x17+x35-y17_35 <=1 
C611: x17+x37 <=1 
C612: x17+x41 <=1 
C613: x17+x42-y17_42 <=1 
C614: x17+x47-y17_47 <=1 
C615: x17+x49 <=1 
C616: x17+x52-y17_52 <=1 
C617: x17+x53 <=1 
C618: x17+x56-y17_56 <=1 
C619: x17+x60 <=1 
C620: x17+x63 <=1 
C621: x18+x20-y18_20 <=1 
C622: x18+x24 <=1 
C623: x18+x26-y18_26 <=1 
C624: x18+x27-y18_27 <=1 
C625: x18+x28-y18_28 <=1 
C626: x18+x29 <=1 
C627: x18+x30-y18_30 <=1 
C628: x18+x31 <=1 
C629: x18+x35-y18_35 <=1 
C630: x18+x36-y18_36 <=1 
C631: x18+x37-y18_37 <=1 
C632: x18+x39-y18_39 <=1 
C633: x18+x40-y18_40 <=1 
C634: x18+x41-y18_41 <=1 
C635: x18+x42-y18_42 <=1 
C636: x18+x45 <=1 
C637: x18+x47-y18_47 <=1 
C638: x18+x48-y18_48 <=1 
C639: x18+x49-y18_49 <=1 
C640: x18+x51 <=1 
C641: x18+x52 <=1 
C642: x18+x53-y18_53 <=1 
C643: x18+x55-y18_55 <=1 
C644: x18+x57-y18_57 <=1 
C645: x18+x59-y18_59 <=1 
C646: x19+x21 <=1 
C647: x19+x22-y19_22 <=1 
C648: x19+x23-y19_23 <=1 
C649: x19+x25 <=1 
C650: x19+x26-y19_26 <=1 
C651: x19+x28 <=1 
C652: x19+x29-y19_29 <=1 
C653: x19+x30-y19_30 <=1 
C654: x19+x32 <=1 
C655: x19+x33 <=1 
C656: x19+x34-y19_34 <=1 
C657: x19+x36-y19_36 <=1 
C658: x19+x37-y19_37 <=1 
C659: x19+x38-y19_38 <=1 
C660: x19+x40-y19_40 <=1 
C661: x19+x42-y19_42 <=1 
C662: x19+x43-y19_43 <=1 
C663: x19+x44-y19_44 <=1 
C664: x19+x46-y19_46 <=1 
C665: x19+x47-y19_47 <=1 
C666: x19+x48-y19_48 <=1 
C667: x19+x49-y19_49 <=1 
C668: x19+x50-y19_50 <=1 
C669: x19+x51 <=1 
C670: x19+x53 <=1 
C671: x19+x54 <=1 
C672: x19+x58 <=1 
C673: x19+x60-y19_60 <=1 
C674: x19+x61-y19_61 <=1 
C675: x19+x63 <=1 
C676: x20+x23-y20_23 <=1 
C677: x20+x26 <=1 
C678: x20+x27-y20_27 <=1 
C679: x20+x28-y20_28 <=1 
C680: x20+x30-y20_30 <=1 
C681: x20+x31-y20_31 <=1 
C682: x20+x36 <=1 
C683: x20+x38 <=1 
C684: x20+x41-y20_41 <=1 
C685: x20+x42 <=1 
C686: x20+x44-y20_44 <=1 
C687: x20+x45-y20_45 <=1 
C688: x20+x47 <=1 
C689: x20+x48-y20_48 <=1 
C690: x20+x52 <=1 
C691: x20+x54-y20_54 <=1 
C692: x20+x57 <=1 
C693: x20+x58 <=1 
C694: x20+x59 <=1 
C695: x20+x60-y20_60 <=1 
C696: x20+x61-y20_61 <=1 
C697: x20+x62-y20_62 <=1 
C698: x20+x63-y20_63 <=1 
C699: x21+x22-y21_22 <=1 
C700: x21+x23-y21_23 <=1 
C701: x21+x25-y21_25 <=1 
C702: x21+x27 <=1 
C703: x21+x29-y21_29 <=1 
C704: x21+x30-y21_30 <=1 
C705: x21+x32-y21_32 <=1 
C706: x21+x35-y21_35 <=1 
C707: x21+x39-y21_39 <=1 
C708: x21+x42 <=1 
C709: x21+x46 <=1 
C710: x21+x47 <=1 
C711: x21+x48 <=1 
C712: x21+x49 <=1 
C713: x21+x50 <=1 
C714: x21+x52-y21_52 <=1 
C715: x21+x53-y21_53 <=1 
C716: x21+x54-y21_54 <=1 
C717: x21+x59 <=1 
C718: x21+x61 <=1 
C719: x22+x23-y22_23 <=1 
C720: x22+x25-y22_25 <=1 
C721: x22+x27 <=1 
C722: x22+x28-y22_28 <=1 
C723: x22+x30 <=1 
C724: x22+x31-y22_31 <=1 
C725: x22+x34-y22_34 <=1 
C726: x22+x36-y22_36 <=1 
C727: x22+x37-y22_37 <=1 
C728: x22+x38-y22_38 <=1 
C729: x22+x40 <=1 
C730: x22+x41-y22_41 <=1 
C731: x22+x43-y22_43 <=1 
C732: x22+x44 <=1 
C733: x22+x45-y22_45 <=1 
C734: x22+x46 <=1 
C735: x22+x47 <=1 
C736: x22+x48-y22_48 <=1 
C737: x22+x49-y22_49 <=1 
C738: x22+x50-y22_50 <=1 
C739: x22+x51 <=1 
C740: x22+x53 <=1 
C741: x22+x54 <=1 
C742: x22+x56-y22_56 <=1 
C743: x22+x57 <=1 
C744: x22+x58 <=1 
C745: x22+x59 <=1 
C746: x22+x60 <=1 
C747: x22+x61-y22_61 <=1 
C748: x23+x25 <=1 
C749: x23+x27-y23_27 <=1 
C750: x23+x28-y23_28 <=1 
C751: x23+x31 <=1 
C752: x23+x32-y23_32 <=1 
C753: x23+x33 <=1 
C754: x23+x34 <=1 
C755: x23+x35 <=1 
C756: x23+x36 <=1 
C757: x23+x37 <=1 
C758: x23+x38-y23_38 <=1 
C759: x23+x39-y23_39 <=1 
C760: x23+x40-y23_40 <=1 
C761: x23+x41 <=1 
C762: x23+x44-y23_44 <=1 
C763: x23+x45-y23_45 <=1 
C764: x23+x46-y23_46 <=1 
C765: x23+x47 <=1 
C766: x23+x53-y23_53 <=1 
C767: x23+x54-y23_54 <=1 
C768: x23+x55-y23_55 <=1 
C769: x23+x56-y23_56 <=1 
C770: x23+x57 <=1 
C771: x23+x61-y23_61 <=1 
C772: x23+x62-y23_62 <=1 
C773: x24+x26-y24_26 <=1 
C774: x24+x29 <=1 
C775: x24+x30-y24_30 <=1 
C776: x24+x31 <=1 
C777: x24+x32 <=1 
C778: x24+x35 <=1 
C779: x24+x38-y24_38 <=1 
C780: x24+x39-y24_39 <=1 
C781: x24+x42-y24_42 <=1 
C782: x24+x43-y24_43 <=1 
C783: x24+x45 <=1 
C784: x24+x46 <=1 
C785: x24+x49 <=1 
C786: x24+x50-y24_50 <=1 
C787: x24+x51-y24_51 <=1 
C788: x24+x53-y24_53 <=1 
C789: x24+x54 <=1 
C790: x24+x55 <=1 
C791: x24+x57-y24_57 <=1 
C792: x24+x58-y24_58 <=1 
C793: x24+x60 <=1 
C794: x24+x61 <=1 
C795: x24+x62-y24_62 <=1 
C796: x24+x63 <=1 
C797: x25+x26 <=1 
C798: x25+x27-y25_27 <=1 
C799: x25+x29-y25_29 <=1 
C800: x25+x33-y25_33 <=1 
C801: x25+x35-y25_35 <=1 
C802: x25+x38-y25_38 <=1 
C803: x25+x39-y25_39 <=1 
C804: x25+x40-y25_40 <=1 
C805: x25+x41 <=1 
C806: x25+x42 <=1 
C807: x25+x43 <=1 
C808: x25+x44-y25_44 <=1 
C809: x25+x45 <=1 
C810: x25+x46 <=1 
C811: x25+x47 <=1 
C812: x25+x48-y25_48 <=1 
C813: x25+x51-y25_51 <=1 
C814: x25+x52 <=1 
C815: x25+x53 <=1 
C816: x25+x54-y25_54 <=1 
C817: x25+x57 <=1 
C818: x25+x59 <=1 
C819: x25+x61-y25_61 <=1 
C820: x25+x62 <=1 
C821: x25+x63 <=1 
C822: x26+x27 <=1 
C823: x26+x29 <=1 
C824: x26+x33 <=1 
C825: x26+x34 <=1 
C826: x26+x37-y26_37 <=1 
C827: x26+x38-y26_38 <=1 
C828: x26+x42 <=1 
C829: x26+x43-y26_43 <=1 
C830: x26+x44-y26_44 <=1 
C831: x26+x45-y26_45 <=1 
C832: x26+x47 <=1 
C833: x26+x48 <=1 
C834: x26+x50-y26_50 <=1 
C835: x26+x51-y26_51 <=1 
C836: x26+x53-y26_53 <=1 
C837: x26+x54-y26_54 <=1 
C838: x26+x55-y26_55 <=1 
C839: x26+x59 <=1 
C840: x26+x60 <=1 
C841: x26+x62-y26_62 <=1 
C842: x26+x63 <=1 
C843: x27+x30 <=1 
C844: x27+x32-y27_32 <=1 
C845: x27+x33 <=1 
C846: x27+x34 <=1 
C847: x27+x35 <=1 
C848: x27+x36-y27_36 <=1 
C849: x27+x39 <=1 
C850: x27+x40 <=1 
C851: x27+x41-y27_41 <=1 
C852: x27+x42-y27_42 <=1 
C853: x27+x44 <=1 
C854: x27+x45 <=1 
C855: x27+x46 <=1 
C856: x27+x47 <=1 
C857: x27+x49-y27_49 <=1 
C858: x27+x50 <=1 
C859: x27+x51-y27_51 <=1 
C860: x27+x52-y27_52 <=1 
C861: x27+x53-y27_53 <=1 
C862: x27+x57-y27_57 <=1 
C863: x27+x59-y27_59 <=1 
C864: x27+x60-y27_60 <=1 
C865: x27+x63 <=1 
C866: x28+x29 <=1 
C867: x28+x31-y28_31 <=1 
C868: x28+x32-y28_32 <=1 
C869: x28+x36-y28_36 <=1 
C870: x28+x37 <=1 
C871: x28+x38-y28_38 <=1 
C872: x28+x39 <=1 
C873: x28+x40 <=1 
C874: x28+x41 <=1 
C875: x28+x42-y28_42 <=1 
C876: x28+x45-y28_45 <=1 
C877: x28+x46 <=1 
C878: x28+x47 <=1 
C879: x28+x48-y28_48 <=1 
C880: x28+x50 <=1 
C881: x28+x51-y28_51 <=1 
C882: x28+x53 <=1 
C883: x28+x54 <=1 
C884: x28+x56 <=1 
C885: x28+x58 <=1 
C886: x28+x63-y28_63 <=1 
C887: x29+x30-y29_30 <=1 
C888: x29+x32 <=1 
C889: x29+x33-y29_33 <=1 
C890: x29+x35-y29_35 <=1 
C891: x29+x37-y29_37 <=1 
C892: x29+x38-y29_38 <=1 
C893: x29+x39-y29_39 <=1 
C894: x29+x40-y29_40 <=1 
C895: x29+x41 <=1 
C896: x29+x43-y29_43 <=1 
C897: x29+x44 <=1 
C898: x29+x45-y29_45 <=1 
C899: x29+x48-y29_48 <=1 
C900: x29+x49 <=1 
C901: x29+x50-y29_50 <=1 
C902: x29+x51 <=1 
C903: x29+x52 <=1 
C904: x29+x53 <=1 
C905: x29+x54 <=1 
C906: x29+x55 <=1 
C907: x29+x56-y29_56 <=1 
C908: x29+x57 <=1 
C909: x29+x58-y29_58 <=1 
C910: x29+x59-y29_59 <=1 
C911: x29+x60-y29_60 <=1 
C912: x29+x61 <=1 
C913: x30+x32 <=1 
C914: x30+x33-y30_33 <=1 
C915: x30+x34-y30_34 <=1 
C916: x30+x36 <=1 
C917: x30+x38 <=1 
C918: x30+x43 <=1 
C919: x30+x44 <=1 
C920: x30+x45-y30_45 <=1 
C921: x30+x46-y30_46 <=1 
C922: x30+x47 <=1 
C923: x30+x48 <=1 
C924: x30+x50-y30_50 <=1 
C925: x30+x51-y30_51 <=1 
C926: x30+x52-y30_52 <=1 
C927: x30+x53-y30_53 <=1 
C928: x30+x54 <=1 
C929: x30+x56 <=1 
C930: x30+x57 <=1 
C931: x30+x59-y30_59 <=1 
C932: x30+x60-y30_60 <=1 
C933: x30+x61 <=1 
C934: x30+x62-y30_62 <=1 
C935: x31+x32 <=1 
C936: x31+x34-y31_34 <=1 
C937: x31+x36-y31_36 <=1 
C938: x31+x37 <=1 
C939: x31+x38-y31_38 <=1 
C940: x31+x40 <=1 
C941: x31+x41-y31_41 <=1 
C942: x31+x42 <=1 
C943: x31+x43 <=1 
C944: x31+x44 <=1 
C945: x31+x45-y31_45 <=1 
C946: x31+x46 <=1 
C947: x31+x47 <=1 
C948: x31+x48 <=1 
C949: x31+x54-y31_54 <=1 
C950: x31+x55-y31_55 <=1 
C951: x31+x56-y31_56 <=1 
C952: x31+x58 <=1 
C953: x31+x60-y31_60 <=1 
C954: x31+x62-y31_62 <=1 
C955: x31+x63-y31_63 <=1 
C956: x32+x33 <=1 
C957: x32+x35 <=1 
C958: x32+x36-y32_36 <=1 
C959: x32+x37-y32_37 <=1 
C960: x32+x39-y32_39 <=1 
C961: x32+x40-y32_40 <=1 
C962: x32+x43-y32_43 <=1 
C963: x32+x45 <=1 
C964: x32+x47-y32_47 <=1 
C965: x32+x48 <=1 
C966: x32+x49 <=1 
C967: x32+x50 <=1 
C968: x32+x51 <=1 
C969: x32+x57-y32_57 <=1 
C970: x32+x58 <=1 
C971: x32+x62 <=1 
C972: x33+x37 <=1 
C973: x33+x38-y33_38 <=1 
C974: x33+x39-y33_39 <=1 
C975: x33+x40-y33_40 <=1 
C976: x33+x41-y33_41 <=1 
C977: x33+x43-y33_43 <=1 
C978: x33+x44 <=1 
C979: x33+x45 <=1 
C980: x33+x46 <=1 
C981: x33+x47-y33_47 <=1 
C982: x33+x48 <=1 
C983: x33+x50-y33_50 <=1 
C984: x33+x51 <=1 
C985: x33+x52 <=1 
C986: x33+x53-y33_53 <=1 
C987: x33+x56 <=1 
C988: x33+x59 <=1 
C989: x33+x61-y33_61 <=1 
C990: x33+x62 <=1 
C991: x34+x35-y34_35 <=1 
C992: x34+x38-y34_38 <=1 
C993: x34+x39 <=1 
C994: x34+x40-y34_40 <=1 
C995: x34+x44 <=1 
C996: x34+x45-y34_45 <=1 
C997: x34+x46-y34_46 <=1 
C998: x34+x47 <=1 
C999: x34+x50 <=1 
C1000: x34+x51-y34_51 <=1 
C1001: x34+x53-y34_53 <=1 
C1002: x34+x54-y34_54 <=1 
C1003: x34+x56-y34_56 <=1 
C1004: x34+x58-y34_58 <=1 
C1005: x34+x59 <=1 
C1006: x34+x61-y34_61 <=1 
C1007: x34+x63-y34_63 <=1 
C1008: x35+x37-y35_37 <=1 
C1009: x35+x38 <=1 
C1010: x35+x40 <=1 
C1011: x35+x41-y35_41 <=1 
C1012: x35+x42 <=1 
C1013: x35+x43-y35_43 <=1 
C1014: x35+x44 <=1 
C1015: x35+x46-y35_46 <=1 
C1016: x35+x48-y35_48 <=1 
C1017: x35+x49 <=1 
C1018: x35+x50-y35_50 <=1 
C1019: x35+x51-y35_51 <=1 
C1020: x35+x53-y35_53 <=1 
C1021: x35+x57 <=1 
C1022: x35+x60 <=1 
C1023: x35+x61-y35_61 <=1 
C1024: x36+x37 <=1 
C1025: x36+x38 <=1 
C1026: x36+x39-y36_39 <=1 
C1027: x36+x40 <=1 
C1028: x36+x43 <=1 
C1029: x36+x45 <=1 
C1030: x36+x46-y36_46 <=1 
C1031: x36+x48 <=1 
C1032: x36+x49-y36_49 <=1 
C1033: x36+x51-y36_51 <=1 
C1034: x36+x52-y36_52 <=1 
C1035: x36+x53-y36_53 <=1 
C1036: x36+x54-y36_54 <=1 
C1037: x36+x55 <=1 
C1038: x36+x57 <=1 
C1039: x36+x61 <=1 
C1040: x37+x38-y37_38 <=1 
C1041: x37+x39-y37_39 <=1 
C1042: x37+x40-y37_40 <=1 
C1043: x37+x43-y37_43 <=1 
C1044: x37+x44 <=1 
C1045: x37+x45-y37_45 <=1 
C1046: x37+x46 <=1 
C1047: x37+x47 <=1 
C1048: x37+x48 <=1 
C1049: x37+x49 <=1 
C1050: x37+x51 <=1 
C1051: x37+x52 <=1 
C1052: x37+x54 <=1 
C1053: x37+x55 <=1 
C1054: x37+x58 <=1 
C1055: x37+x60 <=1 
C1056: x37+x62 <=1 
C1057: x37+x63-y37_63 <=1 
C1058: x38+x39 <=1 
C1059: x38+x40-y38_40 <=1 
C1060: x38+x42 <=1 
C1061: x38+x43 <=1 
C1062: x38+x44 <=1 
C1063: x38+x45-y38_45 <=1 
C1064: x38+x46 <=1 
C1065: x38+x47 <=1 
C1066: x38+x49 <=1 
C1067: x38+x50-y38_50 <=1 
C1068: x38+x54 <=1 
C1069: x38+x55-y38_55 <=1 
C1070: x38+x57-y38_57 <=1 
C1071: x38+x58-y38_58 <=1 
C1072: x38+x59 <=1 
C1073: x38+x63-y38_63 <=1 
C1074: x39+x40 <=1 
C1075: x39+x41-y39_41 <=1 
C1076: x39+x42 <=1 
C1077: x39+x43 <=1 
C1078: x39+x46-y39_46 <=1 
C1079: x39+x47-y39_47 <=1 
C1080: x39+x48-y39_48 <=1 
C1081: x39+x50-y39_50 <=1 
C1082: x39+x51-y39_51 <=1 
C1083: x39+x52 <=1 
C1084: x39+x55-y39_55 <=1 
C1085: x39+x56 <=1 
C1086: x39+x57-y39_57 <=1 
C1087: x39+x58-y39_58 <=1 
C1088: x39+x59 <=1 
C1089: x39+x60-y39_60 <=1 
C1090: x39+x61 <=1 
C1091: x39+x62-y39_62 <=1 
C1092: x39+x63 <=1 
C1093: x40+x41-y40_41 <=1 
C1094: x40+x42-y40_42 <=1 
C1095: x40+x43-y40_43 <=1 
C1096: x40+x45 <=1 
C1097: x40+x47-y40_47 <=1 
C1098: x40+x48 <=1 
C1099: x40+x49 <=1 
C1100: x40+x53-y40_53 <=1 
C1101: x40+x55 <=1 
C1102: x40+x57 <=1 
C1103: x40+x58-y40_58 <=1 
C1104: x40+x59-y40_59 <=1 
C1105: x40+x62-y40_62 <=1 
C1106: x40+x63-y40_63 <=1 
C1107: x41+x49 <=1 
C1108: x41+x50 <=1 
C1109: x41+x51 <=1 
C1110: x41+x52-y41_52 <=1 
C1111: x41+x53-y41_53 <=1 
C1112: x41+x54 <=1 
C1113: x41+x55-y41_55 <=1 
C1114: x41+x56 <=1 
C1115: x41+x57 <=1 
C1116: x41+x59-y41_59 <=1 
C1117: x41+x60-y41_60 <=1 
C1118: x41+x61 <=1 
C1119: x41+x62-y41_62 <=1 
C1120: x41+x63 <=1 
C1121: x42+x43 <=1 
C1122: x42+x45-y42_45 <=1 
C1123: x42+x47 <=1 
C1124: x42+x48-y42_48 <=1 
C1125: x42+x50 <=1 
C1126: x42+x52-y42_52 <=1 
C1127: x42+x53 <=1 
C1128: x42+x54 <=1 
C1129: x42+x55 <=1 
C1130: x42+x57 <=1 
C1131: x42+x58 <=1 
C1132: x42+x59-y42_59 <=1 
C1133: x42+x60 <=1 
C1134: x42+x62 <=1 
C1135: x43+x46 <=1 
C1136: x43+x48 <=1 
C1137: x43+x50-y43_50 <=1 
C1138: x43+x51-y43_51 <=1 
C1139: x43+x52 <=1 
C1140: x43+x53 <=1 
C1141: x43+x54 <=1 
C1142: x43+x56-y43_56 <=1 
C1143: x43+x59 <=1 
C1144: x43+x60-y43_60 <=1 
C1145: x43+x61 <=1 
C1146: x43+x63-y43_63 <=1 
C1147: x44+x45 <=1 
C1148: x44+x46-y44_46 <=1 
C1149: x44+x47-y44_47 <=1 
C1150: x44+x48 <=1 
C1151: x44+x49 <=1 
C1152: x44+x51-y44_51 <=1 
C1153: x44+x52-y44_52 <=1 
C1154: x44+x53-y44_53 <=1 
C1155: x44+x54-y44_54 <=1 
C1156: x44+x55 <=1 
C1157: x44+x60 <=1 
C1158: x44+x61 <=1 
C1159: x44+x63 <=1 
C1160: x45+x46 <=1 
C1161: x45+x47-y45_47 <=1 
C1162: x45+x49-y45_49 <=1 
C1163: x45+x50-y45_50 <=1 
C1164: x45+x53-y45_53 <=1 
C1165: x45+x55-y45_55 <=1 
C1166: x45+x56-y45_56 <=1 
C1167: x45+x57-y45_57 <=1 
C1168: x45+x58 <=1 
C1169: x45+x59 <=1 
C1170: x45+x60 <=1 
C1171: x45+x61-y45_61 <=1 
C1172: x45+x62 <=1 
C1173: x45+x63-y45_63 <=1 
C1174: x46+x47-y46_47 <=1 
C1175: x46+x48-y46_48 <=1 
C1176: x46+x51-y46_51 <=1 
C1177: x46+x53 <=1 
C1178: x46+x54 <=1 
C1179: x46+x55-y46_55 <=1 
C1180: x46+x58-y46_58 <=1 
C1181: x46+x59 <=1 
C1182: x46+x63-y46_63 <=1 
C1183: x47+x48-y47_48 <=1 
C1184: x47+x49 <=1 
C1185: x47+x50-y47_50 <=1 
C1186: x47+x51-y47_51 <=1 
C1187: x47+x53-y47_53 <=1 
C1188: x47+x55-y47_55 <=1 
C1189: x47+x56 <=1 
C1190: x47+x57 <=1 
C1191: x47+x58-y47_58 <=1 
C1192: x47+x59 <=1 
C1193: x47+x60-y47_60 <=1 
C1194: x47+x61 <=1 
C1195: x47+x63-y47_63 <=1 
C1196: x48+x49-y48_49 <=1 
C1197: x48+x53 <=1 
C1198: x48+x55-y48_55 <=1 
C1199: x48+x57 <=1 
C1200: x48+x59 <=1 
C1201: x48+x62-y48_62 <=1 
C1202: x49+x51-y49_51 <=1 
C1203: x49+x53 <=1 
C1204: x49+x54-y49_54 <=1 
C1205: x49+x55 <=1 
C1206: x49+x56 <=1 
C1207: x49+x58-y49_58 <=1 
C1208: x50+x51 <=1 
C1209: x50+x52-y50_52 <=1 
C1210: x50+x54-y50_54 <=1 
C1211: x50+x58 <=1 
C1212: x50+x61-y50_61 <=1 
C1213: x50+x62-y50_62 <=1 
C1214: x50+x63-y50_63 <=1 
C1215: x51+x53 <=1 
C1216: x51+x54-y51_54 <=1 
C1217: x51+x56-y51_56 <=1 
C1218: x51+x57 <=1 
C1219: x51+x60 <=1 
C1220: x51+x61 <=1 
C1221: x51+x62-y51_62 <=1 
C1222: x51+x63 <=1 
C1223: x52+x53 <=1 
C1224: x52+x56-y52_56 <=1 
C1225: x52+x58-y52_58 <=1 
C1226: x52+x59-y52_59 <=1 
C1227: x52+x60-y52_60 <=1 
C1228: x52+x61-y52_61 <=1 
C1229: x52+x62 <=1 
C1230: x52+x63 <=1 
C1231: x53+x56-y53_56 <=1 
C1232: x53+x58 <=1 
C1233: x53+x59 <=1 
C1234: x53+x60 <=1 
C1235: x53+x62-y53_62 <=1 
C1236: x54+x56 <=1 
C1237: x54+x57 <=1 
C1238: x54+x58 <=1 
C1239: x54+x59 <=1 
C1240: x54+x61 <=1 
C1241: x55+x56 <=1 
C1242: x55+x59 <=1 
C1243: x55+x61-y55_61 <=1 
C1244: x55+x62 <=1 
C1245: x55+x63-y55_63 <=1 
C1246: x56+x57-y56_57 <=1 
C1247: x56+x60 <=1 
C1248: x56+x61-y56_61 <=1 
C1249: x56+x62-y56_62 <=1 
C1250: x56+x63-y56_63 <=1 
C1251: x57+x58-y57_58 <=1 
C1252: x57+x59 <=1 
C1253: x57+x60-y57_60 <=1 
C1254: x57+x61-y57_61 <=1 
C1255: x57+x63-y57_63 <=1 
C1256: x58+x59 <=1 
C1257: x58+x60-y58_60 <=1 
C1258: x58+x61-y58_61 <=1 
C1259: x58+x62 <=1 
C1260: x58+x63 <=1 
C1261: x59+x60-y59_60 <=1 
C1262: x59+x62-y59_62 <=1 
C1263: x59+x63-y59_63 <=1 
C1264: x60+x61 <=1 
C1265: x60+x62 <=1 
C1266: x60+x63-y60_63 <=1 
C1267: x61+x62-y61_62 <=1 
C1268: x61+x63 <=1 

binary
x0
x1
x2
x3
x4
x5
x6
x7
x8
x9
x10
x11
x12
x13
x14
x15
x16
x17
x18
x19
x20
x21
x22
x23
x24
x25
x26
x27
x28
x29
x30
x31
x32
x33
x34
x35
x36
x37
x38
x39
x40
x41
x42
x43
x44
x45
x46
x47
x48
x49
x50
x51
x52
x53
x54
x55
x56
x57
x58
x59
x60
x61
x62
x63
