problem_generation/data/GISP/train/er_n=64_m=1268_p=0.60_SET2_setparam=100.00_alpha=0.50_467.sol
objective value:                                 1172
x2                                                  1 	(obj:100)
x6                                                  1 	(obj:100)
x9                                                  1 	(obj:100)
x10                                                 1 	(obj:100)
x19                                                 1 	(obj:100)
x20                                                 1 	(obj:100)
x23                                                 1 	(obj:100)
x40                                                 1 	(obj:100)
x43                                                 1 	(obj:100)
x44                                                 1 	(obj:100)
x50                                                 1 	(obj:100)
x62                                                 1 	(obj:100)
y10_40                                              1 	(obj:-1)
y10_44                                              1 	(obj:-1)
y2_40                                               1 	(obj:-1)
y43_50                                              1 	(obj:-1)
y20_62                                              1 	(obj:-1)
y6_10                                               1 	(obj:-1)
y9_43                                               1 	(obj:-1)
y50_62                                              1 	(obj:-1)
y23_62                                              1 	(obj:-1)
y9_10                                               1 	(obj:-1)
y19_50                                              1 	(obj:-1)
y19_40                                              1 	(obj:-1)
y20_23                                              1 	(obj:-1)
y19_44                                              1 	(obj:-1)
y10_62                                              1 	(obj:-1)
y40_62                                              1 	(obj:-1)
y10_43                                              1 	(obj:-1)
y40_43                                              1 	(obj:-1)
y10_20                                              1 	(obj:-1)
y9_23                                               1 	(obj:-1)
y9_50                                               1 	(obj:-1)
y10_23                                              1 	(obj:-1)
y6_20                                               1 	(obj:-1)
y19_43                                              1 	(obj:-1)
y20_44                                              1 	(obj:-1)
y23_40                                              1 	(obj:-1)
y23_44                                              1 	(obj:-1)
y19_23                                              1 	(obj:-1)
